c Path planning problem for ProbSAT
c Generated by gen_cnf.py
p cnf 135 143
1 2 3 4 5 6 7 8 9 0
10 11 12 13 14 15 16 17 18 0
19 20 21 22 23 24 25 26 27 0
28 29 30 31 32 33 34 35 36 0
37 38 39 40 41 42 43 44 45 0
46 47 48 49 50 51 52 53 54 0
55 56 57 58 59 60 61 62 63 0
64 65 66 67 68 69 70 71 72 0
73 74 75 76 77 78 79 80 81 0
82 83 84 85 86 87 88 89 90 0
91 92 93 94 95 96 97 98 99 0
100 101 102 103 104 105 106 107 108 0
109 110 111 112 113 114 115 116 117 0
118 119 120 121 122 123 124 125 126 0
127 128 129 130 131 132 133 134 135 0
-1 10 13 11 0
-2 11 14 12 10 0
-3 12 15 11 0
-4 13 16 10 14 0
-5 14 17 11 15 13 0
-6 15 18 12 14 0
-7 16 13 17 0
-8 17 14 18 16 0
-9 18 15 17 0
-10 19 22 20 0
-11 20 23 21 19 0
-12 21 24 20 0
-13 22 25 19 23 0
-14 23 26 20 24 22 0
-15 24 27 21 23 0
-16 25 22 26 0
-17 26 23 27 25 0
-18 27 24 26 0
-19 28 31 29 0
-20 29 32 30 28 0
-21 30 33 29 0
-22 31 34 28 32 0
-23 32 35 29 33 31 0
-24 33 36 30 32 0
-25 34 31 35 0
-26 35 32 36 34 0
-27 36 33 35 0
-28 37 40 38 0
-29 38 41 39 37 0
-30 39 42 38 0
-31 40 43 37 41 0
-32 41 44 38 42 40 0
-33 42 45 39 41 0
-34 43 40 44 0
-35 44 41 45 43 0
-36 45 42 44 0
-37 46 49 47 0
-38 47 50 48 46 0
-39 48 51 47 0
-40 49 52 46 50 0
-41 50 53 47 51 49 0
-42 51 54 48 50 0
-43 52 49 53 0
-44 53 50 54 52 0
-45 54 51 53 0
-46 55 58 56 0
-47 56 59 57 55 0
-48 57 60 56 0
-49 58 61 55 59 0
-50 59 62 56 60 58 0
-51 60 63 57 59 0
-52 61 58 62 0
-53 62 59 63 61 0
-54 63 60 62 0
-55 64 67 65 0
-56 65 68 66 64 0
-57 66 69 65 0
-58 67 70 64 68 0
-59 68 71 65 69 67 0
-60 69 72 66 68 0
-61 70 67 71 0
-62 71 68 72 70 0
-63 72 69 71 0
-64 73 76 74 0
-65 74 77 75 73 0
-66 75 78 74 0
-67 76 79 73 77 0
-68 77 80 74 78 76 0
-69 78 81 75 77 0
-70 79 76 80 0
-71 80 77 81 79 0
-72 81 78 80 0
-73 82 85 83 0
-74 83 86 84 82 0
-75 84 87 83 0
-76 85 88 82 86 0
-77 86 89 83 87 85 0
-78 87 90 84 86 0
-79 88 85 89 0
-80 89 86 90 88 0
-81 90 87 89 0
-82 91 94 92 0
-83 92 95 93 91 0
-84 93 96 92 0
-85 94 97 91 95 0
-86 95 98 92 96 94 0
-87 96 99 93 95 0
-88 97 94 98 0
-89 98 95 99 97 0
-90 99 96 98 0
-91 100 103 101 0
-92 101 104 102 100 0
-93 102 105 101 0
-94 103 106 100 104 0
-95 104 107 101 105 103 0
-96 105 108 102 104 0
-97 106 103 107 0
-98 107 104 108 106 0
-99 108 105 107 0
-100 109 112 110 0
-101 110 113 111 109 0
-102 111 114 110 0
-103 112 115 109 113 0
-104 113 116 110 114 112 0
-105 114 117 111 113 0
-106 115 112 116 0
-107 116 113 117 115 0
-108 117 114 116 0
-109 118 121 119 0
-110 119 122 120 118 0
-111 120 123 119 0
-112 121 124 118 122 0
-113 122 125 119 123 121 0
-114 123 126 120 122 0
-115 124 121 125 0
-116 125 122 126 124 0
-117 126 123 125 0
-118 127 130 128 0
-119 128 131 129 127 0
-120 129 132 128 0
-121 130 133 127 131 0
-122 131 134 128 132 130 0
-123 132 135 129 131 0
-124 133 130 134 0
-125 134 131 135 133 0
-126 135 132 134 0
1 0
135 0
